(declare-fun v11 () (_ BitVec 1))
(declare-fun v17 () (_ BitVec 15))
(assert
(let (($e1 (_ bv0 1)))
(let (($e7 (_ bv2072 12)))
(let (($e14 (_ bv416 9)))
(let (($e19 (_ bv0 11)))
(let (($e22 (_ bv0 2)))
(let (($e80 (concat $e19 v11)))
(let (($e81 (bvand $e80 $e7)))
(let (($e82 (bvand (bvnot $e80) (bvnot $e7))))
(let (($e83 (bvand (bvnot $e82) (bvnot $e81))))
(let (($e84 (concat $e1 $e14)))
(let (($e85         $e84     ))
(let (($e86 (concat $e22 $e85)))
(let (($e87 (bvand $e86 $e83)))
(let (($e88 (   extract      v17)))
(let (($e89              $e88          ))
(let (($e90             $e89 ))
            (ite        $e90  $e87 $e83)
                                                                                                                                                                                                                                                                                                                                                                                                                                                                                                                                                                                                                                                                                                                                                                                                                                                                                                                                                                                                                                                                                                                                                                                                                                                                                                                                                                                                                                                                                                                                                                                                                                                                                                                                                                                                                                                                                                                                                                                                                                                                                                                                                                                                                                                                                                                                                                                                                                                                                                                                                                                                                                                                                                                                                                                                                                                                                                                                                                                                                                                                                                                                                                                                                                                                                                                                                                                                                                                                                                                                                                                                                                                                                                                                                                                                                                                                                                                                                                                                                                                                                                                                                                                                                                                                                                                                                                                                                                                                                                                                                                                                                                                                                                                                                                                                                                                                                                                                                                                                                                                                                                                                                                                                                                                                                                                                                                                                                                                                                                                                                                                                                                                                                                                                                                                                                                                                                                                                                                                                          )))))))))))                            )  )    )      )     ))
